NAME : portgen-26-13
COMMENT : portgen N=26, seed=13
TYPE : TSP
DIMENSION : 26
EDGE_WEIGHT_TYPE : EUC_2D
NODE_COORD_SECTION
1 89465 148576
2 47684 278031
3 797589 479775
4 625102 102360
5 65912 298645
6 752407 306362
7 816286 660031
8 736767 708215
9 88339 91915
10 502586 500313
11 905398 708432
12 754793 538274
13 318183 208483
14 757476 342116
15 725504 766724
16 185180 377726
17 158161 925121
18 168596 132001
19 807898 811964
20 43997 899562
21 216986 150682
22 501203 873816
23 956694 684443
24 87214 636320
25 387008 241996
26 181328 284330
